; benchmark generated from python API
(set-info :status unknown)
(declare-fun syscall_stub_newfstatat_83_64 () (_ BitVec 64))
(declare-fun mem_c0080014_89_32 () (_ BitVec 32))
(declare-fun mem_c0080018_88_32 () (_ BitVec 32))
(declare-fun mem_c0080024_86_32 () (_ BitVec 32))
(declare-fun mem_c0080020_87_32 () (_ BitVec 32))
(declare-fun mem_c0080010_84_32 () (_ BitVec 32))
(declare-fun mem_c0080008_85_32 () (_ BitVec 32))
(declare-fun mem_c0000f45_79_992 () (_ BitVec 992))
(declare-fun mem_c0001010_98_32 () (_ BitVec 32))
(declare-fun mem_1f80fffffc000000_201_8 () (_ BitVec 8))
(assert
 (let ((?x47 ((_ extract 31 0) syscall_stub_newfstatat_83_64)))
 (bvule ?x47 (_ bv4294963200 32))))
(assert
 (let ((?x123 (bvadd mem_c0080018_88_32 mem_c0080014_89_32)))
 (let ((?x129 (concat (_ bv0 32) ?x123)))
 (let ((?x2556051 (concat (concat (_ bv0 26) mem_c0080024_86_32) (_ bv0 1))))
 (let ((?x201 (concat (_ bv0 27) mem_c0080024_86_32)))
 (let ((?x2545934 (bvadd ?x201 ?x2556051)))
 (let ((?x2545201 (concat ?x2545934 (_ bv0 3))))
 (let ((?x2547646 (concat (concat (_ bv0 29) mem_c0080024_86_32) (_ bv0 1))))
 (let ((?x190 (concat (_ bv0 30) mem_c0080024_86_32)))
 (let ((?x2545697 (bvadd (bvadd ?x190 ?x2547646) ?x2545201)))
 (let ((?x2550217 (concat ?x2545697 (_ bv0 2))))
 (let ((?x168 (concat (_ bv0 32) mem_c0080020_87_32)))
 (let ((?x2550696 (bvadd ?x168 ?x2550217)))
 (let ((?x1811674 (concat (concat (_ bv0 29) mem_c0080010_84_32) (_ bv0 1))))
 (let ((?x161 (concat (_ bv0 30) mem_c0080010_84_32)))
 (let ((?x2543965 (bvadd ?x161 ?x1811674)))
 (let ((?x938249 (concat ?x2543965 (_ bv0 2))))
 (let ((?x143 (concat (_ bv0 32) mem_c0080008_85_32)))
 (let ((?x2550141 (bvadd ?x143 ?x938249)))
 (let (($x2550351 (bvsle ?x2550696 ?x2550141)))
 (let ((?x2542720 (ite $x2550351 ?x2550141 ?x2550696)))
 (let (($x2545804 (bvsle ?x129 ?x2542720)))
 (let ((?x2550876 (ite $x2545804 ?x2542720 ?x129)))
 (let (($x2544933 (= (_ bv0 64) ?x2550876)))
 (not $x2544933)))))))))))))))))))))))))
(assert
 (let ((?x2189 ((_ extract 900 900) mem_c0000f45_79_992)))
 (= (_ bv0 1) ?x2189)))
(assert
 (let ((?x3699 ((_ extract 891 891) mem_c0000f45_79_992)))
 (= (_ bv0 1) ?x3699)))
(assert
 (let ((?x2374 ((_ extract 839 832) mem_c0000f45_79_992)))
 (let ((?x2364 ((_ extract 831 824) mem_c0000f45_79_992)))
 (let ((?x2349 ((_ extract 823 816) mem_c0000f45_79_992)))
 (let ((?x2357 ((_ extract 815 808) mem_c0000f45_79_992)))
 (let ((?x2362 ((_ extract 807 800) mem_c0000f45_79_992)))
 (let ((?x2363 ((_ extract 799 792) mem_c0000f45_79_992)))
 (let ((?x593 (concat (concat ((_ extract 783 776) mem_c0000f45_79_992) ((_ extract 791 784) mem_c0000f45_79_992)) ?x2363)))
 (let ((?x4215 (concat (concat (concat (concat ?x593 ?x2362) ?x2357) ?x2349) ?x2364)))
 (let ((?x3812 (concat ?x4215 ?x2374)))
 (let ((?x2427 ((_ extract 775 768) mem_c0000f45_79_992)))
 (let ((?x2419 ((_ extract 767 760) mem_c0000f45_79_992)))
 (let ((?x2429 ((_ extract 759 752) mem_c0000f45_79_992)))
 (let ((?x2417 ((_ extract 751 744) mem_c0000f45_79_992)))
 (let ((?x2410 ((_ extract 743 736) mem_c0000f45_79_992)))
 (let ((?x2411 ((_ extract 735 728) mem_c0000f45_79_992)))
 (let ((?x4124 (concat (concat ((_ extract 719 712) mem_c0000f45_79_992) ((_ extract 727 720) mem_c0000f45_79_992)) ?x2411)))
 (let ((?x4642 (concat ?x4124 ?x2410)))
 (let ((?x3823 (concat (concat (concat (concat ?x4642 ?x2417) ?x2429) ?x2419) ?x2427)))
 (let (($x551 (bvule ?x3823 ?x3812)))
 (not $x551)))))))))))))))))))))
(assert
 (let ((?x2357 ((_ extract 815 808) mem_c0000f45_79_992)))
 (let ((?x2417 ((_ extract 751 744) mem_c0000f45_79_992)))
 (let (($x1690 (= ?x2417 ?x2357)))
 (let (($x3670 (not $x1690)))
 (let ((?x2362 ((_ extract 807 800) mem_c0000f45_79_992)))
 (let ((?x2410 ((_ extract 743 736) mem_c0000f45_79_992)))
 (let (($x1703 (= ?x2410 ?x2362)))
 (let (($x3664 (not $x1703)))
 (let ((?x2345 ((_ extract 783 776) mem_c0000f45_79_992)))
 (let ((?x2400 ((_ extract 719 712) mem_c0000f45_79_992)))
 (let (($x1701 (= ?x2400 ?x2345)))
 (let (($x3671 (not $x1701)))
 (let ((?x2363 ((_ extract 799 792) mem_c0000f45_79_992)))
 (let ((?x2411 ((_ extract 735 728) mem_c0000f45_79_992)))
 (let (($x1704 (= ?x2411 ?x2363)))
 (let (($x3672 (not $x1704)))
 (let ((?x2346 ((_ extract 791 784) mem_c0000f45_79_992)))
 (let ((?x2401 ((_ extract 727 720) mem_c0000f45_79_992)))
 (let (($x1693 (= ?x2401 ?x2346)))
 (let (($x4136 (not $x1693)))
 (let ((?x2364 ((_ extract 831 824) mem_c0000f45_79_992)))
 (let ((?x2419 ((_ extract 767 760) mem_c0000f45_79_992)))
 (let (($x1155 (= ?x2419 ?x2364)))
 (let (($x4137 (not $x1155)))
 (let ((?x2374 ((_ extract 839 832) mem_c0000f45_79_992)))
 (let ((?x2427 ((_ extract 775 768) mem_c0000f45_79_992)))
 (let (($x1152 (= ?x2427 ?x2374)))
 (let (($x4139 (not $x1152)))
 (let ((?x2349 ((_ extract 823 816) mem_c0000f45_79_992)))
 (let ((?x2429 ((_ extract 759 752) mem_c0000f45_79_992)))
 (let (($x1714 (= ?x2429 ?x2349)))
 (let (($x4539 (not $x1714)))
 (let (($x6038 (or $x4539 $x4139 $x4137 $x4136 $x3672 $x3671 $x3664 $x3670)))
 (let (($x9215 (not $x6038)))
 (let ((?x4533 (concat (concat (concat (concat (concat ?x2345 ?x2346) ?x2363) ?x2362) ?x2357) ?x2349)))
 (let ((?x4215 (concat ?x4533 ?x2364)))
 (let ((?x3812 (concat ?x4215 ?x2374)))
 (let ((?x3646 (bvmul (_ bv18446744073709551615 64) ?x3812)))
 (let ((?x3809 (concat (concat (concat (concat (concat ?x2400 ?x2401) ?x2411) ?x2410) ?x2417) ?x2429)))
 (let ((?x3823 (concat (concat ?x3809 ?x2419) ?x2427)))
 (let ((?x3827 (bvadd ?x3823 ?x3646)))
 (let ((?x2482 ((_ extract 63 63) ?x3827)))
 (let (($x2285 (= (_ bv1 1) ?x2482)))
 (or $x2285 $x9215)))))))))))))))))))))))))))))))))))))))))))))
(assert
 (= (_ bv0 32) mem_c0001010_98_32))
(assert
 (let ((?x2374 ((_ extract 839 832) mem_c0000f45_79_992)))
 (let ((?x2364 ((_ extract 831 824) mem_c0000f45_79_992)))
 (let ((?x2349 ((_ extract 823 816) mem_c0000f45_79_992)))
 (let ((?x2357 ((_ extract 815 808) mem_c0000f45_79_992)))
 (let ((?x2362 ((_ extract 807 800) mem_c0000f45_79_992)))
 (let ((?x2363 ((_ extract 799 792) mem_c0000f45_79_992)))
 (let ((?x593 (concat (concat ((_ extract 783 776) mem_c0000f45_79_992) ((_ extract 791 784) mem_c0000f45_79_992)) ?x2363)))
 (let ((?x4215 (concat (concat (concat (concat ?x593 ?x2362) ?x2357) ?x2349) ?x2364)))
 (let ((?x3812 (concat ?x4215 ?x2374)))
 (bvule ?x3812 (_ bv9223372036854775807 64))))))))))))
(assert
 (let ((?x2374 ((_ extract 839 832) mem_c0000f45_79_992)))
 (let ((?x2364 ((_ extract 831 824) mem_c0000f45_79_992)))
 (let ((?x2349 ((_ extract 823 816) mem_c0000f45_79_992)))
 (let ((?x2357 ((_ extract 815 808) mem_c0000f45_79_992)))
 (let ((?x2362 ((_ extract 807 800) mem_c0000f45_79_992)))
 (let ((?x2363 ((_ extract 799 792) mem_c0000f45_79_992)))
 (let ((?x593 (concat (concat ((_ extract 783 776) mem_c0000f45_79_992) ((_ extract 791 784) mem_c0000f45_79_992)) ?x2363)))
 (let ((?x4215 (concat (concat (concat (concat ?x593 ?x2362) ?x2357) ?x2349) ?x2364)))
 (let ((?x3812 (concat ?x4215 ?x2374)))
 (= (_ bv2270095687104331776 64) ?x3812)))))))))))
(assert
 (and (distinct (_ bv10 8) mem_1f80fffffc000000_201_8) true))
(assert
 (let ((?x2374 ((_ extract 839 832) mem_c0000f45_79_992)))
 (let ((?x2364 ((_ extract 831 824) mem_c0000f45_79_992)))
 (let ((?x2349 ((_ extract 823 816) mem_c0000f45_79_992)))
 (let ((?x2357 ((_ extract 815 808) mem_c0000f45_79_992)))
 (let ((?x2362 ((_ extract 807 800) mem_c0000f45_79_992)))
 (let ((?x2363 ((_ extract 799 792) mem_c0000f45_79_992)))
 (let ((?x593 (concat (concat ((_ extract 783 776) mem_c0000f45_79_992) ((_ extract 791 784) mem_c0000f45_79_992)) ?x2363)))
 (let ((?x4215 (concat (concat (concat (concat ?x593 ?x2362) ?x2357) ?x2349) ?x2364)))
 (let ((?x3812 (concat ?x4215 ?x2374)))
 (let ((?x18391 (bvadd (_ bv1 64) ?x3812)))
 (let ((?x2398 (concat ((_ extract 7 0) ((_ extract 775 712) mem_c0000f45_79_992)) ((_ extract 15 8) ((_ extract 775 712) mem_c0000f45_79_992)))))
 (let ((?x2383 (concat (concat ?x2398 ((_ extract 23 16) ((_ extract 775 712) mem_c0000f45_79_992))) ((_ extract 31 24) ((_ extract 775 712) mem_c0000f45_79_992)))))
 (let ((?x2393 (concat (concat ?x2383 ((_ extract 39 32) ((_ extract 775 712) mem_c0000f45_79_992))) ((_ extract 47 40) ((_ extract 775 712) mem_c0000f45_79_992)))))
 (let ((?x2385 (concat (concat ?x2393 ((_ extract 55 48) ((_ extract 775 712) mem_c0000f45_79_992))) ((_ extract 63 56) ((_ extract 775 712) mem_c0000f45_79_992)))))
 (let ((?x18210 (bvsub ?x2385 ?x18391)))
 (let (($x26540 (= (_ bv0 64) ?x18210)))
 (let ((?x26619 (ite $x26540 (_ bv1 1) (_ bv0 1))))
 (let ((?x24824 ((_ extract 63 63) ?x18210)))
 (let ((?x26616 (bvor ?x24824 ?x26619)))
 (= (_ bv0 1) ?x26616)))))))))))))))))))))
(maximize mem_c0080014_89_32)
(minimize mem_c0080018_88_32)
(minimize syscall_stub_newfstatat_83_64)
(minimize mem_c0080010_84_32)
(maximize mem_c0080010_84_32)
(maximize mem_c0080020_87_32)
(minimize mem_c0080014_89_32)
(minimize mem_c0080020_87_32)
(minimize mem_c0080024_86_32)
(maximize mem_c0080018_88_32)
(minimize mem_c0080008_85_32)
(minimize mem_1f80fffffc000000_201_8)
(maximize syscall_stub_newfstatat_83_64)
(maximize mem_1f80fffffc000000_201_8)
(maximize mem_c0000f45_79_992)
(minimize mem_c0001010_98_32)
(maximize mem_c0080024_86_32)
(maximize mem_c0080008_85_32)
(minimize mem_c0000f45_79_992)
(maximize mem_c0001010_98_32)
(check-sat)
(get-objectives)
